
Starting CP-SAT solver v9.15.6755
Parameters: random_seed: 2026072877 max_time_in_seconds: 2500 log_search_progress: true cp_model_presolve: true linearization_level: 2 num_search_workers: 4 cp_model_probing_level: 2 symmetry_level: 2

Initial satisfaction model '': (model_fingerprint: 0x32688eb6e86668d9)
#Variables: 724 (604 primary variables)
  - 724 Booleans in [0,1]
#kBoolAnd: 110 (#enforced: 110) (#literals: 330)
#kBoolOr: 110 (#enforced: 110) (#literals: 220)
#kExactlyOne: 87 (#literals: 261)
#kLinear1: 36 (#enforced: 6)
#kLinear2: 336 (#enforced: 336) (#complex_domain: 110)
#kLinear3: 1'600 (#enforced: 6)
#kLinearN: 1'132 (#enforced: 243) (#terms: 9'111)

Starting presolve at 0.00s
  6.63e-04s  0.00e+00d  [DetectDominanceRelations] 
  8.79e-03s  0.00e+00d  [PresolveToFixPoint] #num_loops=3 #num_dual_strengthening=1 
  3.68e-05s  0.00e+00d  [ExtractEncodingFromLinear] #potential_supersets=95 
  3.06e-04s  0.00e+00d  [DetectDuplicateColumns] 
  1.01e-04s  0.00e+00d  [DetectDuplicateConstraints] #duplicates=9 
[Symmetry] Graph for symmetry has 4'853 nodes and 15'606 arcs.
[Symmetry] Symmetry computation done. time: 0.00128622 dtime: 0.0018296
[SAT presolve] num removable Booleans: 220 / 620
[SAT presolve] num trivial clauses: 0
[SAT presolve] [0s] clauses:2'700 literals:7'350 vars:505 one_side_vars:65 simple_definition:1 singleton_clauses:0
[SAT presolve] [0.000210877s] clauses:2'699 literals:7'343 vars:505 one_side_vars:65 simple_definition:1 singleton_clauses:0
[SAT presolve] [0.000641868s] clauses:2'219 literals:6'572 vars:376 one_side_vars:70 simple_definition:70 singleton_clauses:0
  1.12e-04s  0.00e+00d  [DetectDuplicateConstraintsWithDifferentEnforcements] #without_enforcements=3 
  5.39e-03s  2.24e-03d  [Probe] #probed=1'288 #fixed_bools=10 #equiv=8 #new_binary_clauses=1'098 
  4.69e-04s  2.96e-04d  [MaxClique] Merged 581 constraints with 1'298 literals into 506 constraints with 1'169 literals
  8.41e-04s  0.00e+00d  [DetectDominanceRelations] 
  3.10e-03s  0.00e+00d  [PresolveToFixPoint] #num_loops=1 #num_dual_strengthening=1 
  1.21e-03s  0.00e+00d  [ProcessAtMostOneAndLinear] 
  9.91e-05s  0.00e+00d  [DetectDuplicateConstraints] #duplicates=4 
  8.64e-05s  0.00e+00d  [DetectDuplicateConstraintsWithDifferentEnforcements] 
  3.27e-03s  1.04e-04d  [DetectDominatedLinearConstraints] #relevant_constraints=830 #num_inclusions=514 #num_redundant=7 
  1.15e-04s  0.00e+00d  [DetectDifferentVariables] 
  7.27e-04s  8.23e-05d  [ProcessSetPPC] #relevant_constraints=2'973 #num_inclusions=81 
  2.65e-04s  3.35e-05d  [TransformClausesToExactlyOne] #num_amos=513 #num_clauses=1'650 #num_checked=1'650 
  5.18e-05s  0.00e+00d  [DetectEncodedComplexDomains] 
  3.14e-05s  0.00e+00d  [FindAlmostIdenticalLinearConstraints] 
  8.82e-04s  1.41e-03d  [FindBigAtMostOneAndLinearOverlap] 
  1.45e-03s  1.24e-03d  [FindBigVerticalLinearOverlap] #blocks=2 #saved_nz=71 
  3.93e-04s  7.08e-04d  [FindBigHorizontalLinearOverlap] #linears=466 
  3.17e-04s  2.69e-05d  [MergeClauses] #num_collisions=22 #num_merges=22 #num_saved_literals=110 
  8.01e-04s  0.00e+00d  [DetectDominanceRelations] 
  3.03e-03s  0.00e+00d  [PresolveToFixPoint] #num_loops=2 #num_dual_strengthening=1 
  7.94e-04s  0.00e+00d  [DetectDominanceRelations] 
  2.93e-03s  0.00e+00d  [PresolveToFixPoint] #num_loops=1 #num_dual_strengthening=1 
  1.99e-04s  0.00e+00d  [DetectDuplicateColumns] 
  8.67e-05s  0.00e+00d  [DetectDuplicateConstraints] 
[Symmetry] Graph for symmetry has 4'276 nodes and 13'549 arcs.
[Symmetry] Symmetry computation done. time: 0.000895365 dtime: 0.00133133
[SAT presolve] num removable Booleans: 90 / 472
[SAT presolve] num trivial clauses: 0
[SAT presolve] [0s] clauses:2'112 literals:6'303 vars:443 one_side_vars:143 simple_definition:85 singleton_clauses:0
[SAT presolve] [0.000209374s] clauses:2'112 literals:6'117 vars:443 one_side_vars:191 simple_definition:66 singleton_clauses:0
[SAT presolve] [0.000282482s] clauses:2'104 literals:6'112 vars:439 one_side_vars:192 simple_definition:55 singleton_clauses:0
  1.45e-04s  0.00e+00d  [DetectDuplicateConstraintsWithDifferentEnforcements] #without_enforcements=1 
  5.65e-03s  1.99e-03d  [Probe] #probed=1'278 #new_binary_clauses=754 
  4.26e-04s  2.96e-04d  [MaxClique] Merged 508 constraints with 1'110 literals into 495 constraints with 1'102 literals
  8.27e-04s  0.00e+00d  [DetectDominanceRelations] 
  3.00e-03s  0.00e+00d  [PresolveToFixPoint] #num_loops=1 #num_dual_strengthening=1 
  1.13e-03s  0.00e+00d  [ProcessAtMostOneAndLinear] 
  1.08e-04s  0.00e+00d  [DetectDuplicateConstraints] 
  1.02e-04s  0.00e+00d  [DetectDuplicateConstraintsWithDifferentEnforcements] 
  3.67e-03s  9.92e-05d  [DetectDominatedLinearConstraints] #relevant_constraints=825 #num_inclusions=493 
  1.22e-04s  0.00e+00d  [DetectDifferentVariables] 
  7.24e-04s  7.67e-05d  [ProcessSetPPC] #relevant_constraints=3'012 #num_inclusions=100 
  2.74e-04s  3.27e-05d  [TransformClausesToExactlyOne] #num_amos=494 #num_clauses=1'645 #num_checked=1'645 
  4.44e-05s  0.00e+00d  [DetectEncodedComplexDomains] 
  3.73e-05s  0.00e+00d  [FindAlmostIdenticalLinearConstraints] 
  8.68e-04s  1.30e-03d  [FindBigAtMostOneAndLinearOverlap] 
  1.37e-03s  1.06e-03d  [FindBigVerticalLinearOverlap] #blocks=5 #saved_nz=237 
  3.40e-04s  5.72e-04d  [FindBigHorizontalLinearOverlap] #linears=462 
  3.31e-04s  2.59e-05d  [MergeClauses] #num_collisions=77 #num_merges=77 #num_saved_literals=230 
  8.09e-04s  0.00e+00d  [DetectDominanceRelations] 
  3.04e-03s  0.00e+00d  [PresolveToFixPoint] #num_loops=2 #num_dual_strengthening=1 
  7.98e-04s  0.00e+00d  [DetectDominanceRelations] 
  2.88e-03s  0.00e+00d  [PresolveToFixPoint] #num_loops=1 #num_dual_strengthening=1 
  1.72e-04s  0.00e+00d  [DetectDuplicateColumns] 
  1.04e-04s  0.00e+00d  [DetectDuplicateConstraints] 
[Symmetry] Graph for symmetry has 4'225 nodes and 12'958 arcs.
[Symmetry] Symmetry computation done. time: 0.000891438 dtime: 0.00125772
[SAT presolve] num removable Booleans: 86 / 468
[SAT presolve] num trivial clauses: 0
[SAT presolve] [0s] clauses:2'088 literals:6'070 vars:439 one_side_vars:194 simple_definition:55 singleton_clauses:0
[SAT presolve] [0.000192753s] clauses:2'088 literals:6'070 vars:439 one_side_vars:194 simple_definition:55 singleton_clauses:0
[SAT presolve] [0.000252325s] clauses:2'088 literals:6'070 vars:439 one_side_vars:194 simple_definition:55 singleton_clauses:0
  1.47e-04s  0.00e+00d  [DetectDuplicateConstraintsWithDifferentEnforcements] 
  5.58e-03s  1.94e-03d  [Probe] #probed=1'278 #new_binary_clauses=753 
  4.20e-04s  2.89e-04d  [MaxClique] Merged 493 constraints with 1'086 literals into 492 constraints with 1'085 literals
  8.29e-04s  0.00e+00d  [DetectDominanceRelations] 
  3.01e-03s  0.00e+00d  [PresolveToFixPoint] #num_loops=1 #num_dual_strengthening=1 
  1.14e-03s  0.00e+00d  [ProcessAtMostOneAndLinear] 
  1.09e-04s  0.00e+00d  [DetectDuplicateConstraints] 
  1.00e-04s  0.00e+00d  [DetectDuplicateConstraintsWithDifferentEnforcements] 
  7.56e-04s  5.08e-05d  [DetectDominatedLinearConstraints] #relevant_constraints=830 #num_inclusions=281 
  1.34e-04s  0.00e+00d  [DetectDifferentVariables] 
  7.15e-04s  6.89e-05d  [ProcessSetPPC] #relevant_constraints=3'007 #num_inclusions=69 
  2.85e-04s  3.28e-05d  [TransformClausesToExactlyOne] #num_amos=492 #num_clauses=1'647 #num_checked=1'647 
  5.22e-05s  0.00e+00d  [DetectEncodedComplexDomains] 
  4.62e-05s  1.00e-07d  [FindAlmostIdenticalLinearConstraints] #num_tested_pairs=1 
  7.70e-04s  9.95e-04d  [FindBigAtMostOneAndLinearOverlap] 
  1.17e-03s  8.76e-04d  [FindBigVerticalLinearOverlap] 
  3.73e-04s  5.72e-04d  [FindBigHorizontalLinearOverlap] #linears=462 
  3.28e-04s  2.59e-05d  [MergeClauses] #num_collisions=78 #num_merges=78 #num_saved_literals=232 
  9.37e-04s  0.00e+00d  [DetectDominanceRelations] 
  3.12e-03s  0.00e+00d  [PresolveToFixPoint] #num_loops=1 #num_dual_strengthening=1 
  2.88e-05s  0.00e+00d  [MergeNoOverlap] 
  3.02e-05s  0.00e+00d  [MergeNoOverlap2D] 

Presolve summary:
  - 35 affine relations were detected.
  - rule 'TODO dual: only one blocking constraint?' was applied 852 times.
  - rule 'TODO dual: tighten at most one' was applied 8 times.
  - rule 'TODO linear inclusion: superset is equality' was applied 392 times.
  - rule 'affine: new relation' was applied 35 times.
  - rule 'at_most_one: removed literals' was applied 57 times.
  - rule 'at_most_one: size one' was applied 56 times.
  - rule 'at_most_one: transformed into max clique' was applied 3 times.
  - rule 'bool_or: implications' was applied 63 times.
  - rule 'bool_or: only one literal' was applied 12 times.
  - rule 'bool_or: removed enforcement literal' was applied 557 times.
  - rule 'deductions: 777 stored' was applied 1 time.
  - rule 'duplicate: merged rhs of linear constraint' was applied 12 times.
  - rule 'duplicate: removed constraint' was applied 13 times.
  - rule 'duplicate: removed enforced constraint' was applied 4 times.
  - rule 'enforcement: false literal' was applied 37 times.
  - rule 'enforcement: true literal' was applied 10 times.
  - rule 'exactly_one: removed literals' was applied 30 times.
  - rule 'exactly_one: satisfied' was applied 7 times.
  - rule 'exactly_one: singleton' was applied 3 times.
  - rule 'exactly_one: size two' was applied 27 times.
  - rule 'exactly_one: x and not(x)' was applied 6 times.
  - rule 'incompatible linear: add implication' was applied 123 times.
  - rule 'linear + amo: empty after processing' was applied 6 times.
  - rule 'linear + amo: extracted enforcement literal' was applied 60 times.
  - rule 'linear + amo: trivial linear constraint' was applied 1 time.
  - rule 'linear inclusion: redundant containing constraint' was applied 3 times.
  - rule 'linear inclusion: redundant included constraint' was applied 3 times.
  - rule 'linear inclusion: sparsify superset' was applied 1 time.
  - rule 'linear matrix: common vertical rectangle' was applied 7 times.
  - rule 'linear1: x in domain' was applied 30 times.
  - rule 'linear2: convert ax + by != cte to clauses' was applied 248 times.
  - rule 'linear2: convert implied ax + by == cte to clauses' was applied 114 times.
  - rule 'linear2: implied ax + by = cte has only one solution' was applied 9 times.
  - rule 'linear: always true' was applied 425 times.
  - rule 'linear: coefficient strengthening by increasing it' was applied 2 times.
  - rule 'linear: empty' was applied 1 time.
  - rule 'linear: extracted at most one (max)' was applied 1 time.
  - rule 'linear: fixed or dup variables' was applied 879 times.
  - rule 'linear: negative clause' was applied 1'283 times.
  - rule 'linear: negative reified and' was applied 74 times.
  - rule 'linear: never in domain' was applied 6 times.
  - rule 'linear: positive at most one' was applied 44 times.
  - rule 'linear: reduced variable domains' was applied 8 times.
  - rule 'linear: remapped using affine relations' was applied 23 times.
  - rule 'presolve: 85 unused variables removed.' was applied 1 time.
  - rule 'presolve: iteration' was applied 3 times.
  - rule 'probing: bool_or reduced to implication' was applied 35 times.
  - rule 'probing: simplified clauses' was applied 18 times.
  - rule 'setppc: bool_or in at_most_one' was applied 7 times.
  - rule 'setppc: removed dominated constraints' was applied 85 times.

Presolved satisfaction model '': (model_fingerprint: 0x5584e1a1b1c31e99)
#Variables: 475 (408 primary variables)
  - 468 Booleans in [0,1]
  - 6 in [0,2]
  - 1 in [0,8]
#kAtMostOne: 53 (#literals: 207)
#kBoolAnd: 262 (#enforced: 262) (#literals: 701)
#kBoolAndClauses: 78 (#enforced: 78 #multi: 78) (#literals: 388)
#kBoolOr: 1'491 (#literals: 4'568)
#kExactlyOne: 50 (#literals: 196)
#kLinear3: 12 (#enforced: 8)
#kLinearN: 818 (#enforced: 120) (#terms: 5'562)
[Symmetry] Graph for symmetry has 3'967 nodes and 12'953 arcs.
[Symmetry] Symmetry computation done. time: 0.000860128 dtime: 0.00124122

Preloading model.
#Model   0.10s var:475/475 constraints:2764/2764

Starting search at 0.10s with 4 workers.
3 full problem subsolvers: [default_lp, max_lp, no_lp]
1 first solution subsolver: [fj]
2 interleaved subsolvers: [feasibility_pump, rins/rens]
2 helper subsolvers: [neighborhood_helper, synchronization_agent]

#Model  39.83s var:474/475 constraints:2750/2764
#Model  43.31s var:473/475 constraints:2748/2764
#Model 100.38s var:472/475 constraints:2730/2764
#Model 152.36s var:469/475 constraints:2709/2764
#Model 318.00s var:468/475 constraints:2707/2764
#Model 542.02s var:467/475 constraints:2690/2764
#Model 568.82s var:466/475 constraints:2676/2764
#Model 584.03s var:464/475 constraints:2639/2764
#Model 607.89s var:463/475 constraints:2624/2764
#Model 613.46s var:462/475 constraints:2608/2764
#Model 617.57s var:461/475 constraints:2589/2764
#Model 618.13s var:438/475 constraints:2474/2764
#Model 618.24s var:434/475 constraints:2443/2764
#Model 618.53s var:381/475 constraints:1716/2764 compo:380,1
#Done  618.54s no_lp

Task timing                   n [     min,      max]      avg      dev     time         n [     min,      max]      avg      dev    dtime
        'default_lp':         1 [  10.31m,   10.31m]   10.31m   0.00ns   10.31m         2 [  1.95ms,   10.11m]    5.05m    5.05m   10.11m
  'feasibility_pump':      3068 [854.29us, 149.91ms]   1.42ms   2.69ms    4.36s      3067 [279.10us, 133.54ms] 324.78us   2.41ms 996.11ms
                'fj':      2162 [112.72ms, 207.64ms] 141.95ms   9.54ms    5.11m      2162 [ 68.41ms, 100.10ms] 100.01ms 679.87us    3.60m
            'max_lp':         1 [  10.31m,   10.31m]   10.31m   0.00ns   10.31m         2 [100.96ms,   12.40m]    6.20m    6.20m   12.40m
             'no_lp':         1 [  10.31m,   10.31m]   10.31m   0.00ns   10.31m         2 [  1.79ms,   19.43m]    9.72m    9.72m   19.43m
         'rins/rens':      2664 [ 26.67ms, 256.77ms] 115.18ms  43.98ms    5.11m      2664 [845.09us, 100.27ms]  67.64ms  37.48ms    3.00m

Search stats     Bools  Conflicts   Branches  Restarts  BacktrackToRoot  Backtrack   BoolPropag  IntegerPropag
  'default_lp':    468     66'225  3'509'272       366          617'046    845'516   39'396'312     47'597'527
      'max_lp':    468     37'456  5'542'703       251          955'487  1'208'701   60'905'796     79'254'483
       'no_lp':    468  6'552'303  9'462'974    22'550          262'885  6'792'083  520'059'267    169'504'371

SAT formula      Fixed  Equiv  Total  VarLeft  BinaryClauses  PermanentClauses  TemporaryClauses
  'default_lp':     13      6    468      449          2'730            21'984             4'261
      'max_lp':     13      6    468      449          2'692            19'802             3'078
       'no_lp':    277      6    468      185          2'288            45'844             3'985

SAT stats        ClassicMinim  LitRemoved  LitRemovedBinary   LitLearned  LitForgotten   Subsumed
  'default_lp':        56'586     602'580           454'586    1'617'028       790'356     26'542
      'max_lp':        30'431     273'957           223'059      698'120       206'268     17'059
       'no_lp':     5'796'258  85'603'253        41'878'484  143'140'283   112'176'791  1'784'398

Vivification       Clauses  Decisions  LitTrue  Subsumed  LitRemoved  DecisionReused  Conflicts
  'default_lp':    685'521  3'334'318        3    13'118     116'215         207'799      1'068
      'max_lp':  1'053'681  5'377'402        1    15'132     135'824         288'125      1'263
       'no_lp':    220'713  1'716'875        0    16'887     211'116          61'292      1'213

Clause deletion    at_true  l_and_not(l)  to_binary  sub_conflict  sub_extra  sub_decisions  sub_eager  sub_vivify  sub_probing  sub_inpro  blocked  eliminated  forgotten    promoted  conflicts
    'default_lp':   10'700             2         18        26'094        161            881        448      13'118        3'522      7'967        0           0     23'947     122'110     66'225
        'max_lp':    8'656             2         18        16'912         79            401        147      15'132        3'591      7'823        0           0      7'322      56'135     37'456
         'no_lp':   52'295             8        251     1'748'949     15'825         78'719     35'449      16'887       10'602     93'050        0           0  4'453'494  14'849'725  6'552'303

Lp stats         Component  Iterations  AddedCuts  OPTIMAL  DUAL_F.  DUAL_U.
  'default_lp':          1   7'456'574     24'887   82'037        2   42'920
      'max_lp':          1   3'198'632     30'613   13'067   18'411    8'885

Lp dimension        Final dimension of first component
  'default_lp':   376 rows, 348 columns, 10463 entries
      'max_lp':  1552 rows, 475 columns, 49169 entries

Lp debug         CutPropag  CutEqPropag  Adjust  Overflow      Bad  BadScaling
  'default_lp':          0           18  42'920         0  811'513           0
      'max_lp':          0          283   8'880         0  867'970           0

Lp pool          Constraints  Updates  Simplif  Merged  Shortened  Split  Strengthened      Cuts/Call
  'default_lp':       10'672    4'214        0       0          5      0             1  24'887/38'936
      'max_lp':       12'716   12'018    4'642       2      4'809    606           934  30'613/58'828

Lp Cut            default_lp  max_lp
          CG_FF:         405      91
           CG_K:         219      11
          CG_KL:         184       6
           CG_R:         430      42
          CG_RB:           3       3
         CG_RBP:           -       1
         Clique:           -     134
             IB:          35      11
       MIR_1_FF:         235     515
        MIR_1_K:          57      11
       MIR_1_KL:         154      14
        MIR_1_R:         216     214
       MIR_1_RB:           -       1
      MIR_1_RLT:           -   2'811
       MIR_2_FF:         207     345
        MIR_2_K:          55      81
       MIR_2_KL:         115      26
        MIR_2_R:         200     338
       MIR_2_RB:           -       7
       MIR_3_FF:         107      68
        MIR_3_K:          21      17
       MIR_3_KL:          45       8
        MIR_3_R:          81     150
       MIR_3_RB:           -       8
      MIR_3_RBP:           -       3
       MIR_4_FF:          39      31
        MIR_4_K:          11       7
       MIR_4_KL:          16       2
        MIR_4_R:          38     124
       MIR_4_RB:           -      14
      MIR_4_RBP:           -       4
       MIR_5_FF:          11      14
        MIR_5_K:           1       4
       MIR_5_KL:           3       -
        MIR_5_R:          13      96
       MIR_5_RB:           -       1
      MIR_5_RBP:           1       4
       MIR_6_FF:           3       5
        MIR_6_K:           -       3
       MIR_6_KL:           2       -
        MIR_6_R:           4      90
       MIR_6_RB:           -       8
      MIR_6_RBP:           -       5
   ZERO_HALF_FF:         165     270
    ZERO_HALF_K:          44      19
   ZERO_HALF_KL:          51       1
    ZERO_HALF_R:      21'607  24'933
   ZERO_HALF_RB:           7       1
  ZERO_HALF_RBP:         102      61

LNS stats       Improv/Calls  Closed  Difficulty  TimeLimit
  'rins/rens':     2664/2664     50%    8.08e-01       0.10

LS stats                                    Batches  Restarts/Perturbs   LinMoves   GenMoves  CompoundMoves  Bactracks  WeightUpdates  ScoreComputed
                             'fj_restart':      107                 29  2'776'406          0              0          0      2'211'002      5'445'680
                    'fj_restart_compound':      214                 42          0  2'276'901         98'403  1'089'160          6'700     38'478'366
                'fj_restart_compound_obj':      170                 27          0  1'874'459         90'489    891'911          4'514     30'337'158
            'fj_restart_compound_perturb':      174                 42          0  1'885'130        105'794    889'611          4'478     31'102'424
        'fj_restart_compound_perturb_obj':      125                 47          0  1'313'837        102'630    605'517          2'656     22'266'578
                       'fj_restart_decay':      188                 39  5'443'835          0              0          0        237'985      4'008'950
              'fj_restart_decay_compound':      137                 40          0  1'558'285        249'225    654'410          1'698     24'754'113
          'fj_restart_decay_compound_obj':       73                 36          0    783'752        128'991    327'272            933     13'146'474
      'fj_restart_decay_compound_perturb':      238                 34          0  2'937'303        472'393  1'232'381          3'008     43'289'480
  'fj_restart_decay_compound_perturb_obj':      155                 28          0  1'877'152        304'052    786'490          1'959     28'146'097
                   'fj_restart_decay_obj':       73                 38  2'114'329          0              0          0         92'466      1'553'010
               'fj_restart_decay_perturb':      136                 33  3'940'436          0              0          0        172'114      2'893'336
           'fj_restart_decay_perturb_obj':      110                 42  3'184'742          0              0          0        139'133      2'344'589
                         'fj_restart_obj':       83                 38  2'079'020          0              0          0      1'638'035      4'098'654
                     'fj_restart_perturb':       99                 36  2'642'306          0              0          0      2'031'798      4'747'853
                 'fj_restart_perturb_obj':       80                 31  2'004'872          0              0          0      1'621'479      4'022'944

Solution repositories    Added  Queried  Synchro
    'alternative_path':      0        0        0
      'best_solutions':      0        0        0
   'fj solution hints':    574        0      574
        'lp solutions':    292    2'664      292
                'pump':      0        0

Improving bounds shared    Num  Sym
            'default_lp':    6    0
                'max_lp':    1    0
                 'no_lp':  253    0

Clauses shared    #Exported  #Imported  #BinaryRead  #BinaryTotal
   'default_lp':      2'877     46'762          574           857
       'max_lp':      3'421     46'259          571           857
        'no_lp':     47'090      5'530          857           857

LRAT_status: NA
CpSolverResponse summary:
status: INFEASIBLE
objective: NA
best_bound: NA
integers: 360
booleans: 468
conflicts: 6552303
branches: 9462974
propagations: 520059267
integer_propagations: 169504371
restarts: 22550
lp_iterations: 0
walltime: 618.554
usertime: 618.554
deterministic_time: 2914
gap_integral: 0

{
  "board_size": 22,
  "parity_proved": 0,
  "target": 34,
  "child_id": 777,
  "child_count": 2640,
  "partition": "unknown_pair_x_diag_plus_twos_x_diag_minus_twos",
  "build_seconds": 0.0780487060546875,
  "workers": 4,
  "requested_seed": 2026072877,
  "effective_seed": 2026072877,
  "main_diagonal_pair": [
    2,
    7
  ],
  "pair_index": 44,
  "diag_plus_twos": 17,
  "diag_minus_twos": 15,
  "pair_excess": 10,
  "residual_certificate_slack": 102,
  "analytic_minimum_line_defect": 22,
  "analytic_defect_details": {
    "row_costs": {
      "12": 6,
      "13": 3,
      "14": 0,
      "15": 0,
      "16": 0,
      "17": 0
    },
    "column_costs": {
      "12": 6,
      "13": 3,
      "14": 0,
      "15": 0,
      "16": 0,
      "17": 0
    },
    "plus_cost": 0,
    "minus_cost": 22,
    "row_column_minimum": 0
  },
  "maximal_line_constraints": 2455,
  "analytic_infeasible": false,
  "allowed_points": 242,
  "status": "INFEASIBLE",
  "proof_method": "cp_sat_all_lines_with_certificate_profile_cuts",
  "elapsed_seconds": 618.5550229549408,
  "branches": 9462974,
  "conflicts": 6552303
}
